12 66
1 2 4
1 3 5
1 4 4
1 5 3
1 6 4
1 7 4
1 8 5
1 9 4
1 10 3
1 11 2
1 12 4
2 3 1
2 4 1
2 5 1
2 6 3
2 7 1
2 8 2
2 9 2
2 10 2
2 11 4
2 12 5
3 4 1
3 5 1
3 6 5
3 7 5
3 8 2
3 9 4
3 10 4
3 11 1
3 12 2
4 5 2
4 6 4
4 7 3
4 8 5
4 9 3
4 10 4
4 11 1
4 12 4
5 6 2
5 7 2
5 8 5
5 9 3
5 10 4
5 11 2
5 12 5
6 7 2
6 8 1
6 9 5
6 10 5
6 11 4
6 12 5
7 8 3
7 9 1
7 10 5
7 11 5
7 12 5
8 9 2
8 10 3
8 11 2
8 12 2
9 10 1
9 11 4
9 12 2
10 11 4
10 12 2
11 12 1
